99 8 84 94 142 51 88 35 125 101 146 25 46 45 177 163 157 67 38 134 22 68 130 92 180 54 154 10 114 40 12 186 131 194 196 50 171 137 77 111 90 152 76 78 147 175 197 9 133 91 27 69 182 167 173 28 108 151 36 156 17 24 169 33 102 100 140 60 106 126 86 39 75 13 98 20 11 144 172 189 184 121 62 198 110 71 5 183 56 185 135 166 132 48 65 66 119 97 41 179 145 136 81 43 70 141 158 127 52 109 117 29 105 168 129 7 19 155 115 159 148 181 79 87 113 61 89 21 161 199 74 164 63 178 49 44 42 59 6 47 107 37 64 170 128 14 139 191 174 122 138 4 112 1 58 80 116 120 123 15 118 103 18 55 57 165 96 190 73 143 162 16 85 195 124 153 0 26 30 192 32 72 150 53 149 187 31 160 23 95 104 188 93 34 176 83 82 2 3 193 

